p cnf 171 675
-1 -33 0
-2 -33 0
1 2 33 0
1 2 -34 0
-1 -2 -34 0
-1 2 34 0
1 -2 34 0
33 -35 0
-3 -35 0
3 -33 35 0
3 -33 -36 0
-3 33 -36 0
3 33 36 0
-3 -33 36 0
35 -37 0
-4 -37 0
4 -35 37 0
4 -35 -38 0
-4 35 -38 0
4 35 38 0
-4 -35 38 0
37 -39 0
-5 -39 0
5 -37 39 0
5 -37 -40 0
-5 37 -40 0
5 37 40 0
-5 -37 40 0
39 -41 0
-6 -41 0
6 -39 41 0
6 -39 -42 0
-6 39 -42 0
6 39 42 0
-6 -39 42 0
41 -43 0
-7 -43 0
7 -41 43 0
7 -41 -44 0
-7 41 -44 0
7 41 44 0
-7 -41 44 0
43 -45 0
-8 -45 0
8 -43 45 0
8 -43 -46 0
-8 43 -46 0
8 43 46 0
-8 -43 46 0
2 -47 0
1 -47 0
-1 -2 47 0
-1 -2 -48 0
1 2 -48 0
1 -2 48 0
-1 2 48 0
-2 -3 49 0
-3 -47 49 0
-2 -47 49 0
2 3 -49 0
3 47 -49 0
2 47 -49 0
3 -49 -50 0
2 -49 -50 0
47 -49 -50 0
-3 49 50 0
-2 49 50 0
-47 49 50 0
-2 -3 -47 50 0
2 3 47 -50 0
-3 -4 51 0
-4 -49 51 0
-3 -49 51 0
3 4 -51 0
4 49 -51 0
3 49 -51 0
4 -51 -52 0
3 -51 -52 0
49 -51 -52 0
-4 51 52 0
-3 51 52 0
-49 51 52 0
-3 -4 -49 52 0
3 4 49 -52 0
-4 -5 53 0
-5 -51 53 0
-4 -51 53 0
4 5 -53 0
5 51 -53 0
4 51 -53 0
5 -53 -54 0
4 -53 -54 0
51 -53 -54 0
-5 53 54 0
-4 53 54 0
-51 53 54 0
-4 -5 -51 54 0
4 5 51 -54 0
-5 -6 55 0
-6 -53 55 0
-5 -53 55 0
5 6 -55 0
6 53 -55 0
5 53 -55 0
6 -55 -56 0
5 -55 -56 0
53 -55 -56 0
-6 55 56 0
-5 55 56 0
-53 55 56 0
-5 -6 -53 56 0
5 6 53 -56 0
-6 -7 57 0
-7 -55 57 0
-6 -55 57 0
6 7 -57 0
7 55 -57 0
6 55 -57 0
7 -57 -58 0
6 -57 -58 0
55 -57 -58 0
-7 57 58 0
-6 57 58 0
-55 57 58 0
-6 -7 -55 58 0
6 7 55 -58 0
-7 -8 59 0
-8 -57 59 0
-7 -57 59 0
7 8 -59 0
8 57 -59 0
7 57 -59 0
8 -59 -60 0
7 -59 -60 0
57 -59 -60 0
-8 59 60 0
-7 59 60 0
-57 59 60 0
-7 -8 -57 60 0
7 8 57 -60 0
8 -61 0
59 -61 0
-8 -59 61 0
-8 -59 -62 0
8 59 -62 0
-8 59 62 0
8 -59 62 0
50 -63 0
1 -63 0
-1 -50 63 0
-1 -50 -64 0
1 50 -64 0
1 -50 64 0
-1 50 64 0
-2 -52 65 0
-52 -63 65 0
-2 -63 65 0
2 52 -65 0
52 63 -65 0
2 63 -65 0
52 -65 -66 0
2 -65 -66 0
63 -65 -66 0
-52 65 66 0
-2 65 66 0
-63 65 66 0
-2 -52 -63 66 0
2 52 63 -66 0
-3 -54 67 0
-54 -65 67 0
-3 -65 67 0
3 54 -67 0
54 65 -67 0
3 65 -67 0
54 -67 -68 0
3 -67 -68 0
65 -67 -68 0
-54 67 68 0
-3 67 68 0
-65 67 68 0
-3 -54 -65 68 0
3 54 65 -68 0
-4 -56 69 0
-56 -67 69 0
-4 -67 69 0
4 56 -69 0
56 67 -69 0
4 67 -69 0
56 -69 -70 0
4 -69 -70 0
67 -69 -70 0
-56 69 70 0
-4 69 70 0
-67 69 70 0
-4 -56 -67 70 0
4 56 67 -70 0
-5 -58 71 0
-58 -69 71 0
-5 -69 71 0
5 58 -71 0
58 69 -71 0
5 69 -71 0
58 -71 -72 0
5 -71 -72 0
69 -71 -72 0
-58 71 72 0
-5 71 72 0
-69 71 72 0
-5 -58 -69 72 0
5 58 69 -72 0
-6 -60 73 0
-60 -71 73 0
-6 -71 73 0
6 60 -73 0
60 71 -73 0
6 71 -73 0
60 -73 -74 0
6 -73 -74 0
71 -73 -74 0
-60 73 74 0
-6 73 74 0
-71 73 74 0
-6 -60 -71 74 0
6 60 71 -74 0
-7 -62 75 0
-62 -73 75 0
-7 -73 75 0
7 62 -75 0
62 73 -75 0
7 73 -75 0
62 -75 -76 0
7 -75 -76 0
73 -75 -76 0
-62 75 76 0
-7 75 76 0
-73 75 76 0
-7 -62 -73 76 0
7 62 73 -76 0
-8 -61 77 0
-61 -75 77 0
-8 -75 77 0
8 61 -77 0
61 75 -77 0
8 75 -77 0
61 -77 -78 0
8 -77 -78 0
75 -77 -78 0
-61 77 78 0
-8 77 78 0
-75 77 78 0
-8 -61 -75 78 0
8 61 75 -78 0
70 -79 0
1 -79 0
-1 -70 79 0
-1 -70 -80 0
1 70 -80 0
1 -70 80 0
-1 70 80 0
-2 -72 81 0
-72 -79 81 0
-2 -79 81 0
2 72 -81 0
72 79 -81 0
2 79 -81 0
72 -81 -82 0
2 -81 -82 0
79 -81 -82 0
-72 81 82 0
-2 81 82 0
-79 81 82 0
-2 -72 -79 82 0
2 72 79 -82 0
-3 -74 83 0
-74 -81 83 0
-3 -81 83 0
3 74 -83 0
74 81 -83 0
3 81 -83 0
74 -83 -84 0
3 -83 -84 0
81 -83 -84 0
-74 83 84 0
-3 83 84 0
-81 83 84 0
-3 -74 -81 84 0
3 74 81 -84 0
-4 -76 85 0
-76 -83 85 0
-4 -83 85 0
4 76 -85 0
76 83 -85 0
4 83 -85 0
76 -85 -86 0
4 -85 -86 0
83 -85 -86 0
-76 85 86 0
-4 85 86 0
-83 85 86 0
-4 -76 -83 86 0
4 76 83 -86 0
-5 -78 87 0
-78 -85 87 0
-5 -85 87 0
5 78 -87 0
78 85 -87 0
5 85 -87 0
78 -87 -88 0
5 -87 -88 0
85 -87 -88 0
-78 87 88 0
-5 87 88 0
-85 87 88 0
-5 -78 -85 88 0
5 78 85 -88 0
-6 -77 89 0
-77 -87 89 0
-6 -87 89 0
6 77 -89 0
77 87 -89 0
6 87 -89 0
77 -89 -90 0
6 -89 -90 0
87 -89 -90 0
-77 89 90 0
-6 89 90 0
-87 89 90 0
-6 -77 -87 90 0
6 77 87 -90 0
7 -91 0
89 -91 0
-7 -89 91 0
-7 -89 -92 0
7 89 -92 0
-7 89 92 0
7 -89 92 0
8 -93 0
91 -93 0
-8 -91 93 0
-8 -91 -94 0
8 91 -94 0
-8 91 94 0
8 -91 94 0
-1 -95 0
-48 -95 0
1 48 95 0
1 48 -96 0
-1 -48 -96 0
-1 48 96 0
1 -48 96 0
95 -97 0
-64 -97 0
64 -95 97 0
64 -95 -98 0
-64 95 -98 0
64 95 98 0
-64 -95 98 0
97 -99 0
-66 -99 0
66 -97 99 0
66 -97 -100 0
-66 97 -100 0
66 97 100 0
-66 -97 100 0
99 -101 0
-68 -101 0
68 -99 101 0
68 -99 -102 0
-68 99 -102 0
68 99 102 0
-68 -99 102 0
101 -103 0
-80 -103 0
80 -101 103 0
80 -101 -104 0
-80 101 -104 0
80 101 104 0
-80 -101 104 0
103 -105 0
-82 -105 0
82 -103 105 0
82 -103 -106 0
-82 103 -106 0
82 103 106 0
-82 -103 106 0
105 -107 0
-84 -107 0
84 -105 107 0
84 -105 -108 0
-84 105 -108 0
84 105 108 0
-84 -105 108 0
107 -109 0
-86 -109 0
86 -107 109 0
86 -107 -110 0
-86 107 -110 0
86 107 110 0
-86 -107 110 0
109 -111 0
-88 -111 0
88 -109 111 0
88 -109 -112 0
-88 109 -112 0
88 109 112 0
-88 -109 112 0
111 -113 0
-90 -113 0
90 -111 113 0
90 -111 -114 0
-90 111 -114 0
90 111 114 0
-90 -111 114 0
113 -115 0
-92 -115 0
92 -113 115 0
92 -113 -116 0
-92 113 -116 0
92 113 116 0
-92 -113 116 0
115 -117 0
-94 -117 0
94 -115 117 0
94 -115 -118 0
-94 115 -118 0
94 115 118 0
-94 -115 118 0
117 -119 0
-93 -119 0
93 -117 119 0
93 -117 -120 0
-93 117 -120 0
93 117 120 0
-93 -117 120 0
-9 -121 0
-10 -121 0
9 10 121 0
9 10 -122 0
-9 -10 -122 0
-9 10 122 0
9 -10 122 0
121 -123 0
-11 -123 0
11 -121 123 0
11 -121 -124 0
-11 121 -124 0
11 121 124 0
-11 -121 124 0
123 -125 0
-12 -125 0
12 -123 125 0
12 -123 -126 0
-12 123 -126 0
12 123 126 0
-12 -123 126 0
125 -127 0
-13 -127 0
13 -125 127 0
13 -125 -128 0
-13 125 -128 0
13 125 128 0
-13 -125 128 0
127 -129 0
-14 -129 0
14 -127 129 0
14 -127 -130 0
-14 127 -130 0
14 127 130 0
-14 -127 130 0
129 -131 0
-15 -131 0
15 -129 131 0
15 -129 -132 0
-15 129 -132 0
15 129 132 0
-15 -129 132 0
131 -133 0
-16 -133 0
16 -131 133 0
16 -131 -134 0
-16 131 -134 0
16 131 134 0
-16 -131 134 0
-9 -135 0
-10 -135 0
9 10 135 0
9 10 -136 0
-9 -10 -136 0
-9 10 136 0
9 -10 136 0
135 -137 0
-11 -137 0
11 -135 137 0
11 -135 -138 0
-11 135 -138 0
11 135 138 0
-11 -135 138 0
137 -139 0
-12 -139 0
12 -137 139 0
12 -137 -140 0
-12 137 -140 0
12 137 140 0
-12 -137 140 0
139 -141 0
-13 -141 0
13 -139 141 0
13 -139 -142 0
-13 139 -142 0
13 139 142 0
-13 -139 142 0
141 -143 0
-14 -143 0
14 -141 143 0
14 -141 -144 0
-14 141 -144 0
14 141 144 0
-14 -141 144 0
143 -145 0
-15 -145 0
15 -143 145 0
15 -143 -146 0
-15 143 -146 0
15 143 146 0
-15 -143 146 0
145 -147 0
-16 -147 0
16 -145 147 0
16 -145 -148 0
-16 145 -148 0
16 145 148 0
-16 -145 148 0
66 -149 0
9 -149 0
-9 -66 149 0
-9 -66 -150 0
9 66 -150 0
9 -66 150 0
-9 66 150 0
-10 -68 151 0
-68 -149 151 0
-10 -149 151 0
10 68 -151 0
68 149 -151 0
10 149 -151 0
68 -151 -152 0
10 -151 -152 0
149 -151 -152 0
-68 151 152 0
-10 151 152 0
-149 151 152 0
-10 -68 -149 152 0
10 68 149 -152 0
-11 -80 153 0
-80 -151 153 0
-11 -151 153 0
11 80 -153 0
80 151 -153 0
11 151 -153 0
80 -153 -154 0
11 -153 -154 0
151 -153 -154 0
-80 153 154 0
-11 153 154 0
-151 153 154 0
-11 -80 -151 154 0
11 80 151 -154 0
-12 -82 155 0
-82 -153 155 0
-12 -153 155 0
12 82 -155 0
82 153 -155 0
12 153 -155 0
82 -155 -156 0
12 -155 -156 0
153 -155 -156 0
-82 155 156 0
-12 155 156 0
-153 155 156 0
-12 -82 -153 156 0
12 82 153 -156 0
-13 -84 157 0
-84 -155 157 0
-13 -155 157 0
13 84 -157 0
84 155 -157 0
13 155 -157 0
84 -157 -158 0
13 -157 -158 0
155 -157 -158 0
-84 157 158 0
-13 157 158 0
-155 157 158 0
-13 -84 -155 158 0
13 84 155 -158 0
-14 -86 159 0
-86 -157 159 0
-14 -157 159 0
14 86 -159 0
86 157 -159 0
14 157 -159 0
86 -159 -160 0
14 -159 -160 0
157 -159 -160 0
-86 159 160 0
-14 159 160 0
-157 159 160 0
-14 -86 -157 160 0
14 86 157 -160 0
-15 -88 161 0
-88 -159 161 0
-15 -159 161 0
15 88 -161 0
88 159 -161 0
15 159 -161 0
88 -161 -162 0
15 -161 -162 0
159 -161 -162 0
-88 161 162 0
-15 161 162 0
-159 161 162 0
-15 -88 -159 162 0
15 88 159 -162 0
-16 -90 163 0
-90 -161 163 0
-16 -161 163 0
16 90 -163 0
90 161 -163 0
16 161 -163 0
90 -163 -164 0
16 -163 -164 0
161 -163 -164 0
-90 163 164 0
-16 163 164 0
-161 163 164 0
-16 -90 -161 164 0
16 90 161 -164 0
92 -165 0
163 -165 0
-92 -163 165 0
-92 -163 -166 0
92 163 -166 0
-92 163 166 0
92 -163 166 0
94 -167 0
165 -167 0
-94 -165 167 0
-94 -165 -168 0
94 165 -168 0
-94 165 168 0
94 -165 168 0
93 -169 0
167 -169 0
-93 -167 169 0
-93 -167 -170 0
93 167 -170 0
-93 167 170 0
93 -167 170 0
1 -171 0
48 -171 0
64 -171 0
-150 -171 0
152 -171 0
-154 -171 0
-156 -171 0
158 -171 0
-160 -171 0
-162 -171 0
-164 -171 0
-166 -171 0
-168 -171 0
-169 -171 0
-170 -171 0
-1 -48 -64 150 -152 154 156 -158 160 162 164 166 168 169 170 171 0
171 0
c main::$tmp::return_value_nondet_char!0@1#1 17 18 19 20 21 22 23 24
c symex::nondet1 9 10 11 12 13 14 15 16
c symex::nondet0 1 2 3 4 5 6 7 8
c main::$tmp::return_value_nondet_char$0!0@1#2 9 10 11 12 13 14 15 16
c __CPROVER_rounding_mode!0#1 FALSE FALSE FALSE FALSE FALSE FALSE FALSE FALSE FALSE FALSE FALSE FALSE FALSE FALSE FALSE FALSE FALSE FALSE FALSE FALSE FALSE FALSE FALSE FALSE FALSE FALSE FALSE FALSE FALSE FALSE FALSE FALSE
c main::$tmp::return_value_nondet_char$0!0@1#1 25 26 27 28 29 30 31 32
c __CPROVER_memory_leak#1 FALSE FALSE FALSE FALSE FALSE FALSE FALSE FALSE FALSE FALSE FALSE FALSE FALSE FALSE FALSE FALSE FALSE FALSE FALSE FALSE FALSE FALSE FALSE FALSE FALSE FALSE FALSE FALSE FALSE FALSE FALSE FALSE FALSE FALSE FALSE FALSE FALSE FALSE FALSE FALSE FALSE FALSE FALSE FALSE FALSE FALSE FALSE FALSE FALSE FALSE FALSE FALSE FALSE FALSE FALSE FALSE FALSE FALSE FALSE FALSE FALSE FALSE FALSE FALSE
c __CPROVER_max_malloc_size#1 FALSE FALSE FALSE FALSE FALSE FALSE FALSE FALSE FALSE FALSE FALSE FALSE FALSE FALSE FALSE FALSE FALSE FALSE FALSE FALSE FALSE FALSE FALSE FALSE FALSE FALSE FALSE FALSE FALSE FALSE FALSE FALSE FALSE FALSE FALSE FALSE FALSE FALSE FALSE FALSE FALSE FALSE FALSE FALSE FALSE FALSE FALSE FALSE FALSE FALSE FALSE FALSE FALSE FALSE FALSE TRUE FALSE FALSE FALSE FALSE FALSE FALSE FALSE FALSE
c __CPROVER_deallocated#1 FALSE FALSE FALSE FALSE FALSE FALSE FALSE FALSE FALSE FALSE FALSE FALSE FALSE FALSE FALSE FALSE FALSE FALSE FALSE FALSE FALSE FALSE FALSE FALSE FALSE FALSE FALSE FALSE FALSE FALSE FALSE FALSE FALSE FALSE FALSE FALSE FALSE FALSE FALSE FALSE FALSE FALSE FALSE FALSE FALSE FALSE FALSE FALSE FALSE FALSE FALSE FALSE FALSE FALSE FALSE FALSE FALSE FALSE FALSE FALSE FALSE FALSE FALSE FALSE
c main::$tmp::return_value_nondet_char!0@1#2 1 2 3 4 5 6 7 8
c __CPROVER_dead_object#1 FALSE FALSE FALSE FALSE FALSE FALSE FALSE FALSE FALSE FALSE FALSE FALSE FALSE FALSE FALSE FALSE FALSE FALSE FALSE FALSE FALSE FALSE FALSE FALSE FALSE FALSE FALSE FALSE FALSE FALSE FALSE FALSE FALSE FALSE FALSE FALSE FALSE FALSE FALSE FALSE FALSE FALSE FALSE FALSE FALSE FALSE FALSE FALSE FALSE FALSE FALSE FALSE FALSE FALSE FALSE FALSE FALSE FALSE FALSE FALSE FALSE FALSE FALSE FALSE
